c A SAT instance generated from a 3-CNF formula that had 18 clauses and 9 variables
p cnf 9 18
-4 5 6 0
1 9 -6 0
3 1 -9 0
-8 -4 -1 0
-3 5 -1 0
-6 9 -5 0
-2 3 -5 0
-8 7 -9 0
5 -4 -9 0
6 -1 -2 0
8 9 -3 0
3 8 4 0
-8 1 5 0
-6 -5 -7 0
-8 5 -7 0
2 -7 6 0
5 -1 3 0
7 1 -4 0
